nNurses = 146;
hours = 55;
demand = [14 13 1 32 11 27 34 13 12 24 34 19 23 3 11 16 23 13 27 30 9 19 3 11 21 30 7 29 24 30 2 18 5 28 24 8 36 32 14 7 28 12 31 10 31 12 21 11 22 2 13 12 21 29 18];
minHours = 13;
maxHours = 19;
maxConsec = 17;
maxPresence = 24;